SECTION Graph
Nodes 52
Edges 1326
E 1 2 167
E 1 3 70
E 1 4 99
E 1 5 73
E 1 6 82
E 1 7 160
E 1 8 107
E 1 9 150
E 1 10 140
E 1 11 260
E 1 12 164
E 1 13 244
E 1 14 280
E 1 15 75
E 1 16 65
E 1 17 107
E 1 18 40
E 1 19 76
E 1 20 53
E 1 21 72
E 1 22 12
E 1 23 45
E 1 24 69
E 1 25 103
E 1 26 182
E 1 27 200
E 1 28 177
E 1 29 102
E 1 30 90
E 1 31 37
E 1 32 23
E 1 33 207
E 1 34 34
E 1 35 30
E 1 36 31
E 1 37 52
E 1 38 60
E 1 39 42
E 1 40 52
E 1 41 99
E 1 42 141
E 1 43 116
E 1 44 39
E 1 45 60
E 1 46 70
E 1 47 198
E 1 48 67
E 1 49 16
E 1 50 54
E 1 51 197
E 1 52 305
E 2 3 162
E 2 4 262
E 2 5 236
E 2 6 245
E 2 7 11
E 2 8 239
E 2 9 284
E 2 10 283
E 2 11 410
E 2 12 315
E 2 13 360
E 2 14 379
E 2 15 239
E 2 16 181
E 2 17 124
E 2 18 149
E 2 19 211
E 2 20 141
E 2 21 98
E 2 22 159
E 2 23 127
E 2 24 230
E 2 25 257
E 2 26 298
E 2 27 325
E 2 28 311
E 2 29 159
E 2 30 98
E 2 31 135
E 2 32 182
E 2 33 372
E 2 34 196
E 2 35 194
E 2 36 196
E 2 37 214
E 2 38 224
E 2 39 207
E 2 40 217
E 2 41 224
E 2 42 26
E 2 43 281
E 2 44 186
E 2 45 206
E 2 46 215
E 2 47 288
E 2 48 228
E 2 49 182
E 2 50 149
E 2 51 355
E 2 52 429
E 3 4 151
E 3 5 127
E 3 6 136
E 3 7 153
E 3 8 77
E 3 9 121
E 3 10 122
E 3 11 317
E 3 12 223
E 3 13 312
E 3 14 350
E 3 15 126
E 3 16 134
E 3 17 54
E 3 18 34
E 3 19 52
E 3 20 110
E 3 21 72
E 3 22 60
E 3 23 90
E 3 24 126
E 3 25 163
E 3 26 251
E 3 27 267
E 3 28 243
E 3 29 163
E 3 30 126
E 3 31 52
E 3 32 61
E 3 33 226
E 3 34 98
E 3 35 93
E 3 36 92
E 3 37 112
E 3 38 116
E 3 39 98
E 3 40 107
E 3 41 62
E 3 42 138
E 3 43 139
E 3 44 109
E 3 45 55
E 3 46 138
E 3 47 268
E 3 48 126
E 3 49 72
E 3 50 116
E 3 51 249
E 3 52 371
E 4 5 26
E 4 6 17
E 4 7 257
E 4 8 131
E 4 9 153
E 4 10 133
E 4 11 166
E 4 12 74
E 4 13 178
E 4 14 224
E 4 15 25
E 4 16 96
E 4 17 200
E 4 18 133
E 4 19 119
E 4 20 125
E 4 21 170
E 4 22 109
E 4 23 134
E 4 24 31
E 4 25 27
E 4 26 129
E 4 27 132
E 4 28 104
E 4 29 145
E 4 30 172
E 4 31 135
E 4 32 93
E 4 33 129
E 4 34 67
E 4 35 69
E 4 36 68
E 4 37 48
E 4 38 39
E 4 39 58
E 4 40 47
E 4 41 136
E 4 42 238
E 4 43 61
E 4 44 77
E 4 45 103
E 4 46 58
E 4 47 165
E 4 48 34
E 4 49 86
E 4 50 119
E 4 51 99
E 4 52 227
E 5 6 9
E 5 7 231
E 5 8 118
E 5 9 146
E 5 10 128
E 5 11 190
E 5 12 96
E 5 13 192
E 5 14 236
E 5 15 6
E 5 16 77
E 5 17 175
E 5 18 108
E 5 19 100
E 5 20 102
E 5 21 144
E 5 22 83
E 5 23 109
E 5 24 8
E 5 25 38
E 5 26 138
E 5 27 146
E 5 28 120
E 5 29 127
E 5 30 149
E 5 31 109
E 5 32 68
E 5 33 147
E 5 34 41
E 5 35 43
E 5 36 42
E 5 37 22
E 5 38 13
E 5 39 32
E 5 40 21
E 5 41 120
E 5 42 212
E 5 43 67
E 5 44 53
E 5 45 83
E 5 46 43
E 5 47 168
E 5 48 12
E 5 49 60
E 5 50 97
E 5 51 125
E 5 52 246
E 6 7 239
E 6 8 123
E 6 9 149
E 6 10 131
E 6 11 182
E 6 12 87
E 6 13 186
E 6 14 231
E 6 15 10
E 6 16 82
E 6 17 184
E 6 18 116
E 6 19 107
E 6 20 109
E 6 21 153
E 6 22 92
E 6 23 117
E 6 24 14
E 6 25 31
E 6 26 133
E 6 27 140
E 6 28 113
E 6 29 132
E 6 30 156
E 6 31 118
E 6 32 76
E 6 33 142
E 6 34 49
E 6 35 51
E 6 36 50
E 6 37 30
E 6 38 22
E 6 39 40
E 6 40 30
E 6 41 126
E 6 42 220
E 6 43 65
E 6 44 60
E 6 45 90
E 6 46 46
E 6 47 165
E 6 48 18
E 6 49 69
E 6 50 103
E 6 51 116
E 6 52 239
E 7 8 230
E 7 9 274
E 7 10 274
E 7 11 407
E 7 12 311
E 7 13 360
E 7 14 380
E 7 15 234
E 7 16 178
E 7 17 113
E 7 18 141
E 7 19 202
E 7 20 138
E 7 21 90
E 7 22 152
E 7 23 123
E 7 24 225
E 7 25 253
E 7 26 298
E 7 27 324
E 7 28 309
E 7 29 159
E 7 30 96
E 7 31 128
E 7 32 175
E 7 33 365
E 7 34 190
E 7 35 189
E 7 36 190
E 7 37 209
E 7 38 219
E 7 39 201
E 7 40 212
E 7 41 214
E 7 42 19
E 7 43 274
E 7 44 182
E 7 45 197
E 7 46 211
E 7 47 289
E 7 48 223
E 7 49 175
E 7 50 146
E 7 51 351
E 7 52 429
E 8 9 46
E 8 10 45
E 8 11 286
E 8 12 203
E 8 13 309
E 8 14 354
E 8 15 113
E 8 16 165
E 8 17 127
E 8 18 95
E 8 19 31
E 8 20 159
E 8 21 145
E 8 22 104
E 8 23 147
E 8 24 122
E 8 25 154
E 8 26 256
E 8 27 262
E 8 28 235
E 8 29 208
E 8 30 190
E 8 31 114
E 8 32 85
E 8 33 161
E 8 34 114
E 8 35 109
E 8 36 105
E 8 37 115
E 8 38 112
E 8 39 103
E 8 40 105
E 8 41 16
E 8 42 214
E 8 43 90
E 8 44 132
E 8 45 47
E 8 46 150
E 8 47 284
E 8 48 124
E 8 49 96
E 8 50 161
E 8 51 215
E 8 52 358
E 9 10 21
E 9 11 291
E 9 12 218
E 9 13 329
E 9 14 377
E 9 15 140
E 9 16 204
E 9 17 168
E 9 18 141
E 9 19 77
E 9 20 203
E 9 21 191
E 9 22 148
E 9 23 192
E 9 24 152
E 9 25 179
E 9 26 282
E 9 27 284
E 9 28 256
E 9 29 250
E 9 30 235
E 9 31 160
E 9 32 128
E 9 33 143
E 9 34 152
E 9 35 147
E 9 36 144
E 9 37 149
E 9 38 143
E 9 39 139
E 9 40 139
E 9 41 60
E 9 42 259
E 9 43 97
E 9 44 171
E 9 45 90
E 9 46 183
E 9 47 314
E 9 48 154
E 9 49 138
E 9 50 204
E 9 51 221
E 9 52 372
E 10 11 271
E 10 12 198
E 10 13 309
E 10 14 357
E 10 15 123
E 10 16 191
E 10 17 172
E 10 18 137
E 10 19 73
E 10 20 193
E 10 21 188
E 10 22 140
E 10 23 184
E 10 24 134
E 10 25 160
E 10 26 262
E 10 27 264
E 10 28 236
E 10 29 238
E 10 30 228
E 10 31 155
E 10 32 118
E 10 33 125
E 10 34 138
E 10 35 134
E 10 36 130
E 10 37 133
E 10 38 127
E 10 39 125
E 10 40 123
E 10 41 61
E 10 42 258
E 10 43 77
E 10 44 158
E 10 45 82
E 10 46 167
E 10 47 296
E 10 48 138
E 10 49 127
E 10 50 193
E 10 51 200
E 10 52 351
E 11 12 97
E 11 13 111
E 11 14 155
E 11 15 191
E 11 16 229
E 11 17 365
E 11 18 298
E 11 19 281
E 11 20 269
E 11 21 329
E 11 22 271
E 11 23 286
E 11 24 193
E 11 25 158
E 11 26 135
E 11 27 104
E 11 28 104
E 11 29 261
E 11 30 313
E 11 31 297
E 11 32 258
E 11 33 177
E 11 34 226
E 11 35 230
E 11 36 230
E 11 37 209
E 11 38 203
E 11 39 221
E 11 40 211
E 11 41 295
E 11 42 388
E 11 43 197
E 11 44 228
E 11 45 267
E 11 46 197
E 11 47 176
E 11 48 194
E 11 49 250
E 11 50 261
E 11 51 71
E 11 52 100
E 12 13 113
E 12 14 163
E 12 15 97
E 12 16 134
E 12 17 270
E 12 18 202
E 12 19 192
E 12 20 174
E 12 21 232
E 12 22 175
E 12 23 190
E 12 24 97
E 12 25 61
E 12 26 84
E 12 27 71
E 12 28 46
E 12 29 172
E 12 30 219
E 12 31 200
E 12 32 163
E 12 33 146
E 12 34 130
E 12 35 134
E 12 36 134
E 12 37 113
E 12 38 107
E 12 39 126
E 12 40 116
E 12 41 209
E 12 42 292
E 12 43 121
E 12 44 132
E 12 45 176
E 12 46 100
E 12 47 129
E 12 48 98
E 12 49 154
E 12 50 166
E 12 51 47
E 12 52 155
E 13 14 51
E 13 15 196
E 13 16 190
E 13 17 350
E 13 18 284
E 13 19 292
E 13 20 230
E 13 21 299
E 13 22 255
E 13 23 252
E 13 24 190
E 13 25 155
E 13 26 64
E 13 27 46
E 13 28 73
E 13 29 201
E 13 30 264
E 13 31 276
E 13 32 251
E 13 33 253
E 13 34 214
E 13 35 219
E 13 36 220
E 13 37 202
E 13 38 201
E 13 39 216
E 13 40 209
E 13 41 312
E 13 42 343
E 13 43 233
E 13 44 205
E 13 45 275
E 13 46 174
E 13 47 81
E 13 48 189
E 13 49 240
E 13 50 221
E 13 51 135
E 13 52 70
E 14 15 240
E 14 16 221
E 14 17 384
E 14 18 320
E 14 19 335
E 14 20 259
E 14 21 328
E 14 22 291
E 14 23 282
E 14 24 233
E 14 25 200
E 14 26 99
E 14 27 94
E 14 28 121
E 14 29 222
E 14 30 287
E 14 31 310
E 14 32 290
E 14 33 304
E 14 34 252
E 14 35 258
E 14 36 260
E 14 37 243
E 14 38 244
E 14 39 257
E 14 40 251
E 14 41 356
E 14 42 364
E 14 43 281
E 14 44 242
E 14 45 317
E 14 46 212
E 14 47 91
E 14 48 231
E 14 49 278
E 14 50 250
E 14 51 186
E 14 52 80
E 15 16 83
E 15 17 175
E 15 18 108
E 15 19 97
E 15 20 106
E 15 21 146
E 15 22 85
E 15 23 113
E 15 24 14
E 15 25 41
E 15 26 143
E 15 27 150
E 15 28 123
E 15 29 133
E 15 30 153
E 15 31 111
E 15 32 68
E 15 33 142
E 15 34 44
E 15 35 45
E 15 36 44
E 15 37 26
E 15 38 15
E 15 39 33
E 15 40 23
E 15 41 116
E 15 42 215
E 15 43 60
E 15 44 58
E 15 45 80
E 15 46 49
E 15 47 174
E 15 48 18
E 15 49 62
E 15 50 102
E 15 51 124
E 15 52 249
E 16 17 163
E 16 18 102
E 16 19 137
E 16 20 41
E 16 21 109
E 16 22 74
E 16 23 62
E 16 24 69
E 16 25 82
E 16 26 126
E 16 27 149
E 16 28 131
E 16 29 50
E 16 30 84
E 16 31 89
E 16 32 83
E 16 33 224
E 16 34 53
E 16 35 57
E 16 36 61
E 16 37 61
E 16 38 71
E 16 39 66
E 16 40 71
E 16 41 160
E 16 42 160
E 16 43 143
E 16 44 33
E 16 45 119
E 16 46 39
E 16 47 135
E 16 48 65
E 16 49 70
E 16 50 33
E 16 51 178
E 16 52 256
E 17 18 68
E 17 19 105
E 17 20 128
E 17 21 63
E 17 22 96
E 17 23 105
E 17 24 173
E 17 25 209
E 17 26 287
E 17 27 307
E 17 28 284
E 17 29 177
E 17 30 123
E 17 31 74
E 17 32 108
E 17 33 280
E 17 34 140
E 17 35 136
E 17 36 136
E 17 37 157
E 17 38 163
E 17 39 144
E 17 40 154
E 17 41 111
E 17 42 102
E 17 43 193
E 17 44 145
E 17 45 109
E 17 46 177
E 17 47 297
E 17 48 172
E 17 49 115
E 17 50 136
E 17 51 299
E 17 52 412
E 18 19 65
E 18 20 77
E 18 21 51
E 18 22 29
E 18 23 57
E 18 24 105
E 18 25 141
E 18 26 222
E 18 27 240
E 18 28 217
E 18 29 129
E 18 30 96
E 18 31 20
E 18 32 41
E 18 33 226
E 18 34 73
E 18 35 68
E 18 36 68
E 18 37 89
E 18 38 95
E 18 39 76
E 18 40 86
E 18 41 83
E 18 42 123
E 18 43 135
E 18 44 79
E 18 45 57
E 18 46 110
E 18 47 237
E 18 48 104
E 18 49 48
E 18 50 82
E 18 51 232
E 18 52 345
E 19 20 128
E 19 21 115
E 19 22 73
E 19 23 115
E 19 24 103
E 19 25 138
E 19 26 236
E 19 27 246
E 19 28 220
E 19 29 178
E 19 30 158
E 19 31 83
E 19 32 55
E 19 33 175
E 19 34 88
E 19 35 83
E 19 36 79
E 19 37 93
E 19 38 92
E 19 39 80
E 19 40 84
E 19 41 23
E 19 42 185
E 19 43 92
E 19 44 105
E 19 45 19
E 19 46 126
E 19 47 261
E 19 48 104
E 19 49 67
E 19 50 130
E 19 51 211
E 19 52 345
E 20 21 70
E 20 22 56
E 20 23 24
E 20 24 95
E 20 25 117
E 20 26 166
E 20 27 190
E 20 28 173
E 20 29 53
E 20 30 47
E 20 31 59
E 20 32 75
E 20 33 248
E 20 34 64
E 20 35 65
E 20 36 69
E 20 37 81
E 20 38 91
E 20 39 78
E 20 40 87
E 20 41 150
E 20 42 119
E 20 43 160
E 20 44 49
E 20 45 113
E 20 46 74
E 20 47 170
E 20 48 91
E 20 49 66
E 20 50 9
E 20 51 215
E 20 52 297
E 21 22 63
E 21 23 47
E 21 24 140
E 21 25 171
E 21 26 235
E 21 27 258
E 21 28 238
E 21 29 115
E 21 30 60
E 21 31 38
E 21 32 85
E 21 33 274
E 21 34 104
E 21 35 102
E 21 36 103
E 21 37 123
E 21 38 132
E 21 39 113
E 21 40 124
E 21 41 131
E 21 42 72
E 21 43 183
E 21 44 100
E 21 45 108
E 21 46 133
E 21 47 239
E 21 48 137
E 21 49 86
E 21 50 78
E 21 51 268
E 21 52 364
E 22 23 44
E 22 24 79
E 22 25 114
E 22 26 193
E 22 27 211
E 22 28 188
E 22 29 107
E 22 30 88
E 22 31 26
E 22 32 24
E 22 33 213
E 22 34 45
E 22 35 41
E 22 36 42
E 22 37 63
E 22 38 70
E 22 39 52
E 22 40 62
E 22 41 94
E 22 42 134
E 22 43 122
E 22 44 50
E 22 45 58
E 22 46 81
E 22 47 208
E 22 48 78
E 22 49 23
E 22 50 59
E 22 51 208
E 22 52 317
E 23 24 103
E 23 25 130
E 23 26 189
E 23 27 211
E 23 28 193
E 23 29 74
E 23 30 45
E 23 31 38
E 23 32 67
E 23 33 250
E 23 34 69
E 23 35 68
E 23 36 71
E 23 37 87
E 23 38 98
E 23 39 81
E 23 40 91
E 23 41 136
E 23 42 104
E 23 43 160
E 23 44 59
E 23 45 102
E 23 46 89
E 23 47 193
E 23 48 100
E 23 49 61
E 23 50 32
E 23 51 229
E 23 52 318
E 24 25 37
E 24 26 134
E 24 27 144
E 24 28 118
E 24 29 120
E 24 30 142
E 24 31 105
E 24 32 66
E 24 33 155
E 24 34 36
E 24 35 38
E 24 36 38
E 24 37 17
E 24 38 11
E 24 39 29
E 24 40 20
E 24 41 123
E 24 42 206
E 24 43 74
E 24 44 46
E 24 45 85
E 24 46 35
E 24 47 163
E 24 48 4
E 24 49 58
E 24 50 89
E 24 51 129
E 24 52 245
E 25 26 103
E 25 27 109
E 25 28 82
E 25 29 127
E 25 30 164
E 25 31 139
E 25 32 102
E 25 33 151
E 25 34 69
E 25 35 73
E 25 36 73
E 25 37 52
E 25 38 48
E 25 39 65
E 25 40 57
E 25 41 157
E 25 42 234
E 25 43 89
E 25 44 72
E 25 45 120
E 25 46 43
E 25 47 138
E 25 48 37
E 25 49 93
E 25 50 110
E 25 51 98
E 25 52 209
E 26 27 32
E 26 28 40
E 26 29 140
E 26 30 201
E 26 31 213
E 26 32 191
E 26 33 229
E 26 34 154
E 26 35 159
E 26 36 161
E 26 37 144
E 26 38 145
E 26 39 158
E 26 40 152
E 26 41 257
E 26 42 280
E 26 43 189
E 26 44 144
E 26 45 218
E 26 46 113
E 26 47 46
E 26 48 133
E 26 49 180
E 26 50 158
E 26 51 124
E 26 52 131
E 27 28 28
E 27 29 168
E 27 30 228
E 27 31 233
E 27 32 206
E 27 33 215
E 27 34 169
E 27 35 173
E 27 36 175
E 27 37 156
E 27 38 155
E 27 39 170
E 27 40 163
E 27 41 266
E 27 42 307
E 27 43 188
E 27 44 162
E 27 45 228
E 27 46 130
E 27 47 73
E 27 48 143
E 27 49 195
E 27 50 182
E 27 51 103
E 27 52 106
E 28 29 157
E 28 30 213
E 28 31 211
E 28 32 181
E 28 33 192
E 28 34 145
E 28 35 149
E 28 36 151
E 28 37 131
E 28 38 129
E 28 39 145
E 28 40 138
E 28 41 239
E 28 42 291
E 28 43 160
E 28 44 140
E 28 45 202
E 28 46 107
E 28 47 86
E 28 48 117
E 28 49 171
E 28 50 164
E 28 51 84
E 28 52 128
E 29 30 65
E 29 31 111
E 29 32 123
E 29 33 274
E 29 34 100
E 29 35 104
E 29 36 108
E 29 37 111
E 29 38 121
E 29 39 115
E 29 40 120
E 29 41 200
E 29 42 143
E 29 43 193
E 29 44 81
E 29 45 161
E 29 46 87
E 29 47 131
E 29 48 116
E 29 49 112
E 29 50 48
E 29 51 218
E 29 52 270
E 30 31 76
E 30 32 112
E 30 33 293
E 30 34 110
E 30 35 110
E 30 36 113
E 30 37 127
E 30 38 138
E 30 39 124
E 30 40 133
E 30 41 178
E 30 42 79
E 30 43 204
E 30 44 96
E 30 45 146
E 30 46 120
E 30 47 196
E 30 48 138
E 30 49 106
E 30 50 54
E 30 51 261
E 30 52 333
E 31 32 48
E 31 33 237
E 31 34 70
E 31 35 67
E 31 36 68
E 31 37 89
E 31 38 96
E 31 39 78
E 31 40 88
E 31 41 102
E 31 42 110
E 31 43 146
E 31 44 71
E 31 45 73
E 31 46 104
E 31 47 224
E 31 48 103
E 31 49 49
E 31 50 66
E 31 51 234
E 31 52 339
E 32 33 190
E 32 34 38
E 32 35 33
E 32 36 31
E 32 37 51
E 32 38 55
E 32 39 37
E 32 40 46
E 32 41 78
E 32 42 157
E 32 43 98
E 32 44 52
E 32 45 38
E 32 46 78
E 32 47 211
E 32 48 65
E 32 49 12
E 32 50 76
E 32 51 192
E 32 52 310
E 33 34 184
E 33 35 183
E 33 36 180
E 33 37 167
E 33 38 156
E 33 39 170
E 33 40 161
E 33 41 176
E 33 42 347
E 33 43 91
E 33 44 200
E 33 45 172
E 33 46 187
E 33 47 274
E 33 48 159
E 33 49 191
E 33 50 243
E 33 51 119
E 33 52 272
E 34 35 5
E 34 36 8
E 34 37 19
E 34 38 29
E 34 39 15
E 34 40 23
E 34 41 110
E 34 42 171
E 34 43 96
E 34 44 20
E 34 45 69
E 34 46 40
E 34 47 174
E 34 48 33
E 34 49 26
E 34 50 61
E 34 51 164
E 34 52 273
E 35 36 4
E 35 37 22
E 35 38 30
E 35 39 13
E 35 40 23
E 35 41 105
E 35 42 170
E 35 43 94
E 35 44 24
E 35 45 64
E 35 46 46
E 35 47 180
E 35 48 36
E 35 49 21
E 35 50 63
E 35 51 167
E 35 52 278
E 36 37 21
E 36 38 29
E 36 39 11
E 36 40 21
E 36 41 102
E 36 42 172
E 36 43 91
E 36 44 28
E 36 45 61
E 36 46 48
E 36 47 182
E 36 48 36
E 36 49 20
E 36 50 66
E 36 51 166
E 36 52 279
E 37 38 11
E 37 39 14
E 37 40 10
E 37 41 114
E 37 42 190
E 37 43 82
E 37 44 33
E 37 45 74
E 37 46 35
E 37 47 169
E 37 48 15
E 37 49 41
E 37 50 76
E 37 51 145
E 37 52 259
E 38 39 19
E 38 40 9
E 38 41 112
E 38 42 200
E 38 43 72
E 38 44 43
E 38 45 74
E 38 46 41
E 38 47 173
E 38 48 12
E 38 49 48
E 38 50 87
E 38 51 138
E 38 52 257
E 39 40 11
E 39 41 102
E 39 42 182
E 39 43 81
E 39 44 34
E 39 45 61
E 39 46 47
E 39 47 182
E 39 48 28
E 39 49 29
E 39 50 76
E 39 51 157
E 39 52 273
E 40 41 105
E 40 42 193
E 40 43 73
E 40 44 40
E 40 45 66
E 40 46 45
E 40 47 179
E 40 48 20
E 40 49 39
E 40 50 83
E 40 51 146
E 40 52 265
E 41 42 199
E 41 43 100
E 41 44 128
E 41 45 41
E 41 46 148
E 41 47 283
E 41 48 125
E 41 49 90
E 41 50 153
E 41 51 224
E 41 52 363
E 42 43 255
E 42 44 163
E 42 45 180
E 42 46 192
E 42 47 273
E 42 48 204
E 42 49 157
E 42 50 127
E 42 51 332
E 42 52 411
E 43 44 114
E 43 45 84
E 43 46 109
E 43 47 226
E 43 48 78
E 43 49 100
E 43 50 157
E 43 51 126
E 43 52 274
E 44 45 87
E 44 46 33
E 44 47 160
E 44 48 43
E 44 49 39
E 44 50 44
E 44 51 170
E 44 52 268
E 45 46 107
E 45 47 242
E 45 48 86
E 45 49 49
E 45 50 114
E 45 51 198
E 45 52 329
E 46 47 135
E 46 48 31
E 46 49 66
E 46 50 67
E 46 51 141
E 46 52 235
E 47 48 161
E 47 49 199
E 47 50 162
E 47 51 170
E 47 52 149
E 48 49 56
E 48 50 86
E 48 51 131
E 48 52 245
E 49 50 66
E 49 51 185
E 49 52 299
E 50 51 207
E 50 52 288
E 51 52 156
END

SECTION Terminals
Terminals 16
T 1
T 2
T 4
T 10
T 11
T 13
T 17
T 23
T 25
T 29
T 33
T 34
T 38
T 43
T 46
T 47
END

EOF
